8 28
4 50
2 107
32 38
14 81
49 32
60 68
20 162
41 137
27 60
21 145
80 12
21 107
9 118
58 19
30 103
1 165
17 175
49 52
54 20
20 160
61 52
22 132
57 3
57 56
80 5
7 38
84 45
29 99
25 14
4 115
56 77
60 97
97 59
5 64
68 55
52 24
96 3
38 69
5 15
59 52
76 25
39 19
67 22
16 89
11 55
72 10
65 2
70 19
98 11
